9970 6490 1 3 4 5 6 7 8 9 10 13 14 15 16 17 21 23 24 25 26 28 29 31 32 34 35 37 38 39 40 41 42 43 44 45 46 48 49 50 51 52 53 54 55 56 57 58 59 60 63 64 65 67 68 70 71 72 73 75 77 78 79 80 81 82 84 86 87 88 93 94 95 96 98 99 100 101 103 104 105 106 107 108 110 111 113 116 117 118 119 120 121 123 125 127 130 131 132 133 136 137 138 140 141 142 143 144 145 146 147 149 150 151 152 154 155 158 159 161 162 163 165 166 167 169 170 171 172 173 175 177 178 180 181 184 185 189 191 192 194 195 197 199 200 201 203 204 205 207 208 209 210 211 212 215 217 218 220 222 223 224 225 228 230 231 233 234 236 237 238 240 242 243 245 248 249 252 254 255 257 259 260 263 267 268 269 270 272 274 275 276 279 281 282 283 284 285 286 289 290 292 293 295 296 299 303 304 305 308 309 310 311 312 313 314 316 317 318 320 322 323 324 326 327 328 329 330 331 332 334 335 336 338 339 341 342 343 344 345 346 347 349 350 351 352 353 355 357 358 359 360 362 363 364 365 366 367 369 372 373 375 376 377 379 381 382 384 386 387 389 390 391 392 393 395 396 397 398 399 400 402 403 404 405 406 408 409 411 412 413 414 415 417 418 422 423 426 427 428 429 430 432 433 437 438 439 440 442 443 444 445 446 448 450 453 454 455 456 457 459 460 462 463 464 465 466 467 469 470 471 472 473 474 475 476 477 478 484 485 486 487 489 493 494 496 497 498 499 500 